NAME : instances/50-tsp/instance-17.tsp
COMMENT : No comment
TYPE : TSP
DIMENSION: 50
EDGE_WEIGHT_TYPE : EUC_2D
NODE_COORD_SECTION
1 129 290 
2 1229 1271 
3 774 668 
4 1855 1327 
5 581 280 
6 335 255 
7 805 1369 
8 559 1355 
9 923 170 
10 1627 971 
11 1846 381 
12 1212 1914 
13 360 570 
14 1973 367 
15 694 23 
16 1354 1956 
17 1605 1228 
18 1775 1696 
19 277 510 
20 228 409 
21 657 1913 
22 888 870 
23 414 100 
24 204 1687 
25 405 1991 
26 783 1167 
27 609 1033 
28 1345 88 
29 737 1658 
30 121 24 
31 514 1662 
32 1759 496 
33 655 1546 
34 1618 381 
35 912 432 
36 225 1244 
37 1686 1340 
38 183 1997 
39 435 1076 
40 1708 1155 
41 1231 1873 
42 324 1140 
43 1003 1860 
44 23 240 
45 1136 637 
46 924 47 
47 284 1542 
48 1117 1174 
49 796 563 
50 458 1396 
EOF
